
set Period := 
1
2
3
4
5
6
7
8
9
10
11
12
;
set PeriodStandard := 
1
2
3
4
5
6
7
8
9
10
;
param: dp := 
1 85.0
2 38.0
3 18.0
4 38.0
5 21.0
6 59.0
7 23.0
8 30.0
9 23.0
10 30.0
11 1.0
12 1.0
;
param: TimeEnd := 
1 24.0
2 24.0
3 24.0
4 24.0
5 24.0
6 24.0
7 24.0
8 24.0
9 24.0
10 24.0
11 1.0
12 1.0
;